c 
p cnf 116 191
-20 21 22 0
-20 21 -22 0
-20 -21 22 0
-20 -21 -22 0
-3 23 24 0
-3 23 -24 0
-3 -23 24 0
-3 -23 -24 0
3 18 25 0
-25 1 -11 0
-11 26 27 0
-11 26 -27 0
-11 -26 27 0
-11 -26 -27 0
-20 7 28 0
-28 -6 29 0
-29 4 1 0
-15 11 30 0
-30 -9 -7 0
-19 31 32 0
-19 31 -32 0
-19 -31 32 0
-19 -31 -32 0
-17 2 33 0
-17 2 -33 0
13 -20 -8 0
12 -14 8 0
-1 -6 34 0
-34 -20 18 0
7 35 36 0
7 35 -36 0
7 -35 36 0
7 -35 -36 0
-19 20 37 0
-19 20 -37 0
-2 10 -11 0
-9 38 39 0
-9 38 -39 0
-9 -38 39 0
-9 -38 -39 0
3 -7 40 0
3 -7 -40 0
-4 -11 -7 0
4 -8 41 0
-41 -19 11 0
-7 11 42 0
-42 10 43 0
-43 -20 -4 0
4 -2 44 0
4 -2 -44 0
1 20 45 0
-45 -15 3 0
-4 -17 46 0
-46 14 19 0
-8 -18 47 0
-47 19 14 0
7 -9 10 0
-14 -2 48 0
-48 -20 -19 0
-11 5 49 0
-49 10 50 0
-50 20 16 0
4 15 8 0
-18 16 -11 0
-3 -8 51 0
-51 -2 11 0
-10 -15 52 0
-52 14 53 0
-53 -8 12 0
11 -17 54 0
-54 9 -3 0
11 3 55 0
-55 -7 56 0
-56 15 -10 0
-8 -19 57 0
-57 18 -1 0
-1 -3 58 0
-1 -3 -58 0
-14 -11 59 0
-59 -7 60 0
-60 4 -1 0
19 -18 61 0
-61 3 62 0
-62 -15 8 0
8 6 63 0
-63 -5 64 0
-64 -9 -14 0
-7 65 66 0
-7 65 -66 0
-7 -65 66 0
-7 -65 -66 0
13 67 68 0
13 67 -68 0
13 -67 68 0
13 -67 -68 0
9 69 70 0
9 69 -70 0
9 -69 70 0
9 -69 -70 0
15 5 71 0
-71 -16 72 0
-72 -20 -8 0
2 9 -16 0
17 7 73 0
-73 -15 74 0
-74 13 2 0
12 75 76 0
12 75 -76 0
12 -75 76 0
12 -75 -76 0
-17 -12 77 0
-77 -1 -15 0
8 -18 78 0
-78 1 79 0
-79 19 -2 0
12 19 -5 0
14 80 81 0
14 80 -81 0
14 -80 81 0
14 -80 -81 0
11 -15 82 0
-82 -13 83 0
-83 7 -16 0
5 2 84 0
-84 12 16 0
19 -16 85 0
19 -16 -85 0
11 17 86 0
11 17 -86 0
1 6 -8 0
-19 -8 87 0
-87 -18 2 0
-6 4 14 0
2 88 89 0
2 88 -89 0
2 -88 89 0
2 -88 -89 0
14 90 91 0
14 90 -91 0
14 -90 91 0
14 -90 -91 0
-11 14 92 0
-92 3 93 0
-93 -1 -20 0
-9 -20 94 0
-9 -20 -94 0
-4 8 95 0
-95 -15 3 0
17 16 96 0
-96 -2 -13 0
-18 11 8 0
-2 20 -10 0
-1 11 97 0
-97 5 98 0
-98 -8 -13 0
17 -1 99 0
17 -1 -99 0
14 10 100 0
14 10 -100 0
-13 16 101 0
-101 11 -12 0
-8 102 103 0
-8 102 -103 0
-8 -102 103 0
-8 -102 -103 0
-1 4 104 0
-104 8 -13 0
10 1 105 0
-105 7 -16 0
7 11 106 0
-106 -3 -13 0
-17 10 107 0
-107 4 108 0
-108 20 -11 0
7 109 110 0
7 109 -110 0
7 -109 110 0
7 -109 -110 0
-9 19 111 0
-111 -12 -14 0
5 9 112 0
-112 -16 -15 0
-12 14 10 0
7 5 113 0
-113 14 -15 0
12 2 7 0
9 7 114 0
-114 -15 115 0
-115 -13 -4 0
15 6 116 0
15 6 -116 0
